Using bound 7274
Instance with 400 vertices and 39900 edges
No edges = 39900
Tried aggregator 1 time.
MIP Presolve eliminated 140691 rows and 0 columns.
MIP Presolve modified 19709 coefficients.
Reduced MIP has 19311 rows, 800 columns, and 185825 nonzeros.
Reduced MIP has 800 binaries, 0 generals, 0 SOSs, and 0 indicators.
Presolve time = 7.65 sec. (5020.45 ticks)
Probing time = 0.10 sec. (3.70 ticks)
Tried aggregator 1 time.
Reduced MIP has 19311 rows, 800 columns, and 185825 nonzeros.
Reduced MIP has 800 binaries, 0 generals, 0 SOSs, and 0 indicators.
Presolve time = 0.92 sec. (261.38 ticks)
Probing time = 0.06 sec. (3.81 ticks)
Clique table members: 19309.
MIP emphasis: balance optimality and feasibility.
MIP search method: dynamic search.
Parallel mode: deterministic, using up to 8 threads.
Root relaxation solution time = 7.74 sec. (2218.54 ticks)

        Nodes                                         Cuts/
   Node  Left     Objective  IInf  Best Integer    Best Bound    ItCnt     Gap

*     0     0      integral     0     7274.0000     7274.0000       24    0.00%
Elapsed time = 20.99 sec. (9274.70 ticks, tree = 0.00 MB, solutions = 1)

Root node processing (before b&c):
  Real time             =   20.99 sec. (9275.37 ticks)
Parallel b&c, 8 threads:
  Real time             =    0.00 sec. (0.00 ticks)
  Sync time (average)   =    0.00 sec.
  Wait time (average)   =    0.00 sec.
                          ------------
Total (root+branch&cut) =   20.99 sec. (9275.37 ticks)
MaximumVertices: 7274
x: 1 2 4 6 12 13 15 17 24 31 36 40 51 54 60 63 69 71 72 73 74 75 77 78 79 80 82 83 85 86 88 89 91 93 94 95 97 99 100 101 102 114 115 116 117 123 124 125 128 130 131 132 133 138 140 142 143 144 145 146 147 156 157 158 160 165 166 167 172 173 174 176 179 180 191 192 196 197 198 201 202 203 205 206 207 208 211 212 218 222 225 226 228 229 232 233 240 244 248 253 255 257 258 267 269 271 275 276 282 283 285 286 287 290 293 296 300 301 302 304 306 307 310 311 313 317 318 319 321 322 328 330 331 333 334 336 339 340 341 345 346 352 353 355 357 362 364 368 370 371 372 374 378 380 385 387 388 390 393 394 395 397 399 400
y: 7 9 12 15 17 20 36 40 43 44 51 54 56 57 59 60 61 63 69 70 72 74 78 79 80 84 86 89 90 91 92 93 94 95 97 100 101 102 108 112 113 114 118 119 121 122 123 125 131 134 136 137 140 141 142 146 147 148 150 154 157 163 166 167 172 174 175 177 178 179 180 182 185 188 190 193 197 199 201 202 203 204 205 206 208 211 212 222 225 226 228 230 232 233 239 240 245 248 251 258 259 266 271 272 275 277 280 282 290 292 293 295 297 298 302 303 305 309 311 312 313 315 317 319 320 321 322 323 326 330 331 334 335 336 339 340 342 344 346 349 351 352 354 356 357 358 359 360 361 366 367 369 371 374 375 381 382 385 389 390 391 392 395 396 399